c Lingeling SAT Solver
c 
c Version azf 92032848c138b2f33629ad24394d60a3787a1046
c 
c Copyright (C) 2010-2014 Armin Biere JKU Linz Austria.
c All rights reserved.
c 
c released Don Mai 22 22:08:00 CEST 2014
c compiled Mon Oct  6 05:55:43 PDT 2014
c 
c gcc (Ubuntu 4.8.2-19ubuntu1) 4.8.2
c -Wall -O3 -DNDBLSCR -DNLGLOG -DNDEBUG -DNCHKSOL -DNLGLPICOSAT -DNLGLDRUPLIG
c -DNLGLYALSAT
c Linux ubuntu 3.13.0-32-generic x86_64
c 
c reading input file benchmark-sat/translations/gc-queen5_5-6.cnf
c no embedded options
c found 'p cnf 150 2320' header
c read 150 variables, 2320 clauses, 4740 literals in 0.00 seconds
c 
c  seconds         irredundant          redundant clauses agility   height
c          variables clauses conflicts large ternary binary    glue         MB
c 
c S    0.0     150     2320         0       0      0     0   0  0.0   0.0    0
c 
c  seconds         irredundant          redundant clauses agility   height
c          variables clauses conflicts large ternary binary    glue         MB
c 
s SATISFIABLE
v -1 2 -3 -4 -5 -6 7 -8 -9 -10 -11 -12 -13 -14 -15 -16 -17 18 -19 -20 -21 22 -23
v -24 -25 -26 27 -28 -29 -30 -31 -32 -33 -34 -35 36 -37 -38 -39 40 -41 -42 -43
v -44 45 -46 -47 -48 -49 -50 -51 -52 53 -54 55 -56 -57 -58 -59 -60 -61 -62 -63
v -64 65 -66 -67 68 -69 -70 -71 -72 73 -74 -75 -76 -77 -78 -79 -80 -81 -82 -83
v 84 -85 -86 -87 88 -89 -90 91 -92 -93 -94 -95 -96 -97 -98 -99 -100 -101 102
v -103 -104 -105 -106 107 -108 -109 -110 111 -112 -113 -114 -115 116 -117 -118
v -119 -120 -121 -122 -123 124 -125 -126 -127 -128 129 -130 -131 -132 -133 134
v -135 -136 -137 -138 139 -140 -141 -142 -143 -144 -145 -146 -147 -148 149 -150
v 0
c
c    0.005  97% simplifying
c    0.000   2% search
c ==================================
c    0.005 100% all
c 
c 28 decisions, 5153.7 decisions/sec
c 1 conflicts, 184.1 conflicts/sec
c 156 propagations, 0.0 megaprops/sec
c 0.0 seconds, 0.1 MB
